p cnf 34 6
-15 -11 -17 -34 -12 -5 -31 -20 -4 -32 -21 -33 -10 -30 -1 -23 -13 -28 -26 -14 1 3 4 5 8 10 11 12 13 14 15 17 20 21 23 26 28 30 31 32 33 34 0
-8 -6 -5 -28 -34 -2 -31 -29 -3 -25 -20 -10 -27 -21 33 2 3 34 5 6 8 10 20 21 25 27 28 29 31 0
 2 3 4 5 6 7 8 9 10 11 13 16 17 19 21 22 23 25 27 28 29 30 31 32 33 0
-2 -13 -26 -19 -24 -3 -23 -31 -21 -5 -18 -15 -22 -34 -9 -4 -32 -7 -6 2 3 4 5 6 7 8 9 10 13 14 15 17 18 19 20 21 22 23 24 25 26 27 29 30 31 32 34 0
-22 -18 -31 -1 -7 -13 -2 -15 -27 -26 -24 1 2 34 7 12 13 15 18 22 24 26 27 31 0
-17 -12 17 12 13 14 0
